(set-option :auto-config false)
(set-option :produce-unsat-cores false)
(set-option :smt.mbqi.max_iterations 10000000)
(set-option :smt.relevancy 0)
(declare-fun c0 () (_ BitVec 64))
(define-fun e1 () (_ BitVec 64) (_ bv1024 64))
(define-fun e2 () Bool (bvult c0 e1))
(declare-fun c3 () (_ BitVec 64))
(define-fun e4 () (_ BitVec 64) (_ bv256 64))
(define-fun e5 () Bool (bvult c3 e4))
(define-fun e6 () (_ BitVec 64) (_ bv511 64))
(declare-fun c7 () (_ BitVec 64))
(define-fun e8 () Bool (bvult e6 c7))
(define-fun e9 () Bool (not e8))
(define-fun e10 () Bool (and e5 e9))
(define-fun e11 () Bool (and e2 e10))
(define-fun e12 () Bool (not e11))
(define-fun e13 () (_ BitVec 64) (_ bv16 64))
(define-fun e14 () (_ BitVec 64) (bvmul e13 c0))
(define-fun e15 () (_ BitVec 64) (_ bv16376 64))
(define-fun e16 () Bool (bvule e14 e15))
(define-fun e17 () Bool (or e12 e16))
(define-fun e18 () (_ BitVec 64) (_ bv0 64))
(define-fun e19 () (_ BitVec 64) (bvurem e14 e13))
(define-fun e20 () Bool (= e18 e19))
(define-fun e21 () Bool (or e12 e20))
(define-fun e22 () (_ BitVec 64) (_ bv5 64))
(declare-fun c23 ((_ BitVec 64)) (_ BitVec 64))
(define-fun e24 () (_ BitVec 64) (bvudiv e14 e13))
(define-fun e25 () (_ BitVec 64) (c23 e24))
(define-fun e26 () Bool (= e22 e25))
(define-fun e27 () Bool (and e11 e26))
(define-fun e28 () Bool (not e27))
(define-fun e29 () (_ BitVec 64) (_ bv4096 64))
(define-fun e30 () (_ BitVec 64) (bvmul e29 c0))
(define-fun e31 () (_ BitVec 64) (_ bv8 64))
(define-fun e32 () (_ BitVec 64) (bvmul e31 c7))
(define-fun e33 () (_ BitVec 64) (bvadd e30 e32))
(define-fun e34 () (_ BitVec 64) (_ bv4194296 64))
(define-fun e35 () Bool (bvule e33 e34))
(define-fun e36 () Bool (or e28 e35))
(define-fun e37 () (_ BitVec 64) (bvurem e33 e29))
(define-fun e38 () (_ BitVec 64) (_ bv4088 64))
(define-fun e39 () Bool (bvule e37 e38))
(define-fun e40 () Bool (or e28 e39))
(define-fun e41 () (_ BitVec 64) (bvurem e37 e31))
(define-fun e42 () (_ BitVec 64) (bvurem e41 e31))
(define-fun e43 () Bool (= e18 e42))
(define-fun e44 () Bool (or e28 e43))
(define-fun e45 () Bool (bvult e41 e31))
(define-fun e46 () Bool (or e28 e45))
(declare-fun c47 ((_ BitVec 64) (_ BitVec 64)) (_ BitVec 64))
(define-fun e48 () (_ BitVec 64) (bvudiv e37 e31))
(define-fun e49 () (_ BitVec 64) (bvudiv e33 e29))
(define-fun e50 () (_ BitVec 64) (c47 e48 e49))
(define-fun e51 () Bool (= e18 e50))
(define-fun e52 () Bool (and e27 e51))
(define-fun e53 () Bool (not e52))
(define-fun e54 () (_ BitVec 64) (bvadd e31 e14))
(define-fun e55 () Bool (bvule e54 e15))
(define-fun e56 () Bool (or e53 e55))
(define-fun e57 () (_ BitVec 64) (bvurem e54 e13))
(define-fun e58 () Bool (= e31 e57))
(define-fun e59 () Bool (or e53 e58))
(declare-fun c60 ((_ BitVec 64)) (_ BitVec 64))
(define-fun e61 () (_ BitVec 64) (bvudiv e54 e13))
(define-fun e62 () (_ BitVec 64) (c60 e61))
(define-fun e63 () Bool (bvult e62 e1))
(define-fun e64 () Bool (and e52 e63))
(define-fun e65 () Bool (not e64))
(define-fun e66 () (_ BitVec 64) (bvmul e29 e62))
(define-fun e67 () (_ BitVec 64) (bvadd e13 e66))
(define-fun e68 () Bool (bvule e67 e34))
(define-fun e69 () Bool (or e65 e68))
(define-fun e70 () (_ BitVec 64) (bvurem e67 e29))
(define-fun e71 () Bool (bvule e70 e38))
(define-fun e72 () Bool (or e65 e71))
(define-fun e73 () (_ BitVec 64) (bvurem e70 e31))
(define-fun e74 () (_ BitVec 64) (bvurem e73 e31))
(define-fun e75 () Bool (= e18 e74))
(define-fun e76 () Bool (or e65 e75))
(define-fun e77 () Bool (bvult e73 e31))
(define-fun e78 () Bool (or e65 e77))
(define-fun e79 () (_ BitVec 64) (bvudiv e70 e31))
(define-fun e80 () (_ BitVec 64) (bvudiv e67 e29))
(define-fun e81 () (_ BitVec 64) (c47 e79 e80))
(define-fun e82 () Bool (= e18 e81))
(define-fun e83 () Bool (and e64 e82))
(define-fun e84 () Bool (not e83))
(define-fun e85 () Bool (or e35 e84))
(define-fun e86 () Bool (or e39 e84))
(define-fun e87 () Bool (or e43 e84))
(define-fun e88 () Bool (or e45 e84))
(define-fun e89 () Bool (not e63))
(define-fun e90 () Bool (and e52 e89))
(define-fun e91 () Bool (not e90))
(define-fun e92 () Bool (or e53 e63))
(define-fun e93 () Bool (and e17 e21 e36 e40 e44 e46 e56 e59 e69 e72 e76 e78 e85 e86 e87 e88 e91 e92))
(define-fun e95 ((c94 (_ BitVec 64))) (_ BitVec 64) (c60 c94))
(define-fun e96 ((c94 (_ BitVec 64))) (_ BitVec 64) (_ bv1024 64))
(define-fun e97 ((c94 (_ BitVec 64))) Bool (bvult (e95 c94) (e96 c94)))
(define-fun e98 ((c94 (_ BitVec 64))) Bool (bvult c94 (e96 c94)))
(define-fun e99 ((c94 (_ BitVec 64))) (_ BitVec 64) (_ bv0 64))
(define-fun e100 ((c94 (_ BitVec 64))) (_ BitVec 64) (c23 c94))
(define-fun e101 ((c94 (_ BitVec 64))) Bool (= (e99 c94) (e100 c94)))
(define-fun e102 ((c94 (_ BitVec 64))) Bool (not (e101 c94)))
(define-fun e103 ((c94 (_ BitVec 64))) Bool (and (e98 c94) (e102 c94)))
(define-fun e104 ((c94 (_ BitVec 64))) Bool (not (e103 c94)))
(define-fun e105 ((c94 (_ BitVec 64))) Bool (or (e97 c94) (e104 c94)))
(define-fun e106 () Bool (forall ((c94 (_ BitVec 64))) (e105 c94)))
(define-fun e107 ((c94 (_ BitVec 64))) (_ BitVec 64) (c47 (e99 c94) c94))
(define-fun e108 ((c94 (_ BitVec 64))) Bool (bvult (e107 c94) (e96 c94)))
(define-fun e109 ((c94 (_ BitVec 64))) (_ BitVec 64) (_ bv1 64))
(define-fun e110 ((c94 (_ BitVec 64))) Bool (= (e109 c94) (e100 c94)))
(define-fun e111 ((c94 (_ BitVec 64))) Bool (and (e98 c94) (e110 c94)))
(define-fun e112 ((c94 (_ BitVec 64))) Bool (not (e111 c94)))
(define-fun e113 ((c94 (_ BitVec 64))) Bool (or (e108 c94) (e112 c94)))
(define-fun e114 () Bool (forall ((c94 (_ BitVec 64))) (e113 c94)))
(define-fun e115 ((c94 (_ BitVec 64))) Bool (= c94 (e95 c94)))
(define-fun e116 ((c94 (_ BitVec 64))) Bool (or (e112 c94) (e115 c94)))
(define-fun e117 () Bool (forall ((c94 (_ BitVec 64))) (e116 c94)))
(define-fun e118 ((c94 (_ BitVec 64))) (_ BitVec 64) (_ bv9223372023968964300 64))
(define-fun e119 ((c94 (_ BitVec 64))) (_ BitVec 64) (_ bv40 64))
(define-fun e120 ((c94 (_ BitVec 64))) (_ BitVec 64) (c47 (e119 c94) c94))
(define-fun e121 ((c94 (_ BitVec 64))) (_ BitVec 64) (bvand (e118 c94) (e120 c94)))
(define-fun e122 ((c94 (_ BitVec 64))) Bool (= (e99 c94) (e121 c94)))
(define-fun e123 ((c94 (_ BitVec 64))) (_ BitVec 64) (bvneg (_ bv820 64)))
(define-fun e124 ((c94 (_ BitVec 64))) (_ BitVec 64) (_ bv42 64))
(define-fun e125 ((c94 (_ BitVec 64))) (_ BitVec 64) (c47 (e124 c94) c94))
(define-fun e126 ((c94 (_ BitVec 64))) (_ BitVec 64) (bvand (e123 c94) (e125 c94)))
(define-fun e127 ((c94 (_ BitVec 64))) Bool (= (e99 c94) (e126 c94)))
(define-fun e128 ((c94 (_ BitVec 64))) (_ BitVec 64) (_ bv37 64))
(define-fun e129 ((c94 (_ BitVec 64))) (_ BitVec 64) (c47 (e128 c94) c94))
(define-fun e130 ((c94 (_ BitVec 64))) (_ BitVec 64) (bvand (e123 c94) (e129 c94)))
(define-fun e131 ((c94 (_ BitVec 64))) Bool (= (e99 c94) (e130 c94)))
(define-fun e132 ((c94 (_ BitVec 64))) Bool (and (e122 c94) (e127 c94) (e131 c94)))
(define-fun e133 ((c94 (_ BitVec 64))) (_ BitVec 64) (_ bv2 64))
(define-fun e134 ((c94 (_ BitVec 64))) Bool (= (e133 c94) (e100 c94)))
(define-fun e135 ((c94 (_ BitVec 64))) Bool (and (e98 c94) (e134 c94)))
(define-fun e136 ((c94 (_ BitVec 64))) Bool (not (e135 c94)))
(define-fun e137 ((c94 (_ BitVec 64))) Bool (or (e132 c94) (e136 c94)))
(define-fun e138 () Bool (forall ((c94 (_ BitVec 64))) (e137 c94)))
(declare-fun c139 () (_ BitVec 64))
(define-fun e140 () Bool (bvult c139 e1))
(define-fun e141 () (_ BitVec 8) (_ bv0 8))
(declare-fun c142 () (_ BitVec 8))
(define-fun e143 () Bool (= e141 c142))
(define-fun e144 () (_ BitVec 64) (_ bv2 64))
(define-fun e145 () (_ BitVec 64) (c23 c139))
(define-fun e146 () Bool (= e144 e145))
(define-fun e147 () Bool (and e140 e146))
(define-fun e148 () Bool (or e143 e147))
(define-fun e149 () (_ BitVec 64) (_ bv9223372023968964300 64))
(declare-fun c150 () (_ BitVec 64))
(define-fun e151 () (_ BitVec 64) (bvand e149 c150))
(define-fun e152 () Bool (= e18 e151))
(define-fun e153 () (_ BitVec 64) (bvneg (_ bv820 64)))
(declare-fun c154 () (_ BitVec 64))
(define-fun e155 () (_ BitVec 64) (bvand e153 c154))
(define-fun e156 () Bool (= e18 e155))
(declare-fun c157 () (_ BitVec 64))
(define-fun e158 () (_ BitVec 64) (bvand e153 c157))
(define-fun e159 () Bool (= e18 e158))
(define-fun e160 () Bool (and e106 e114 e117 e138 e140 e148 e152 e156 e159))
(define-fun e161 () Bool (not e160))
(define-fun e162 () Bool (or e93 e161))
(define-fun e163 () Bool (not e162))
(assert e163)
(check-sat)
